FourierSAT_Github_AIJ/benchmarks/MAXSAT_benchmarks/1/abrame-habet/v220/s2v220c2300-1.cnf
c Generated after 1 tries
c Graph with 220 nodes and 1150 edges, Max edges:24090
c generated from an undirected graph
c to solve unweighted MaxCut
p cnf 220 2300
1 4 0
-1 -4 0
1 6 0
-1 -6 0
1 43 0
-1 -43 0
1 66 0
-1 -66 0
1 92 0
-1 -92 0
1 141 0
-1 -141 0
1 174 0
-1 -174 0
1 188 0
-1 -188 0
2 39 0
-2 -39 0
2 78 0
-2 -78 0
2 83 0
-2 -83 0
2 118 0
-2 -118 0
2 156 0
-2 -156 0
2 166 0
-2 -166 0
2 170 0
-2 -170 0
2 180 0
-2 -180 0
2 214 0
-2 -214 0
3 21 0
-3 -21 0
3 35 0
-3 -35 0
3 36 0
-3 -36 0
3 51 0
-3 -51 0
3 53 0
-3 -53 0
3 56 0
-3 -56 0
3 87 0
-3 -87 0
3 94 0
-3 -94 0
3 113 0
-3 -113 0
3 128 0
-3 -128 0
3 156 0
-3 -156 0
3 160 0
-3 -160 0
3 161 0
-3 -161 0
3 192 0
-3 -192 0
3 194 0
-3 -194 0
3 204 0
-3 -204 0
3 207 0
-3 -207 0
3 213 0
-3 -213 0
3 216 0
-3 -216 0
3 218 0
-3 -218 0
4 53 0
-4 -53 0
4 64 0
-4 -64 0
4 68 0
-4 -68 0
4 122 0
-4 -122 0
4 152 0
-4 -152 0
4 169 0
-4 -169 0
4 175 0
-4 -175 0
4 202 0
-4 -202 0
5 28 0
-5 -28 0
5 38 0
-5 -38 0
5 47 0
-5 -47 0
5 52 0
-5 -52 0
5 85 0
-5 -85 0
5 86 0
-5 -86 0
5 103 0
-5 -103 0
5 110 0
-5 -110 0
5 117 0
-5 -117 0
5 160 0
-5 -160 0
5 162 0
-5 -162 0
5 165 0
-5 -165 0
6 12 0
-6 -12 0
6 20 0
-6 -20 0
6 23 0
-6 -23 0
6 51 0
-6 -51 0
6 58 0
-6 -58 0
6 60 0
-6 -60 0
6 71 0
-6 -71 0
6 72 0
-6 -72 0
6 94 0
-6 -94 0
6 97 0
-6 -97 0
6 118 0
-6 -118 0
6 158 0
-6 -158 0
6 165 0
-6 -165 0
6 169 0
-6 -169 0
6 188 0
-6 -188 0
6 191 0
-6 -191 0
6 208 0
-6 -208 0
7 47 0
-7 -47 0
7 67 0
-7 -67 0
7 77 0
-7 -77 0
7 95 0
-7 -95 0
7 111 0
-7 -111 0
7 137 0
-7 -137 0
7 204 0
-7 -204 0
7 211 0
-7 -211 0
8 46 0
-8 -46 0
8 53 0
-8 -53 0
8 57 0
-8 -57 0
8 61 0
-8 -61 0
8 85 0
-8 -85 0
8 103 0
-8 -103 0
8 159 0
-8 -159 0
8 187 0
-8 -187 0
8 201 0
-8 -201 0
8 210 0
-8 -210 0
9 15 0
-9 -15 0
9 31 0
-9 -31 0
9 33 0
-9 -33 0
9 58 0
-9 -58 0
9 68 0
-9 -68 0
9 75 0
-9 -75 0
9 80 0
-9 -80 0
9 93 0
-9 -93 0
9 107 0
-9 -107 0
9 115 0
-9 -115 0
9 120 0
-9 -120 0
9 184 0
-9 -184 0
9 205 0
-9 -205 0
9 207 0
-9 -207 0
9 217 0
-9 -217 0
10 20 0
-10 -20 0
10 116 0
-10 -116 0
10 145 0
-10 -145 0
10 151 0
-10 -151 0
10 158 0
-10 -158 0
10 179 0
-10 -179 0
10 206 0
-10 -206 0
11 57 0
-11 -57 0
11 60 0
-11 -60 0
11 83 0
-11 -83 0
11 85 0
-11 -85 0
11 124 0
-11 -124 0
12 58 0
-12 -58 0
12 61 0
-12 -61 0
12 119 0
-12 -119 0
12 139 0
-12 -139 0
12 162 0
-12 -162 0
12 163 0
-12 -163 0
12 201 0
-12 -201 0
12 202 0
-12 -202 0
12 211 0
-12 -211 0
13 99 0
-13 -99 0
13 115 0
-13 -115 0
13 120 0
-13 -120 0
13 121 0
-13 -121 0
13 154 0
-13 -154 0
13 164 0
-13 -164 0
13 169 0
-13 -169 0
13 176 0
-13 -176 0
13 181 0
-13 -181 0
14 56 0
-14 -56 0
14 60 0
-14 -60 0
14 62 0
-14 -62 0
14 120 0
-14 -120 0
14 164 0
-14 -164 0
14 171 0
-14 -171 0
14 181 0
-14 -181 0
14 198 0
-14 -198 0
14 217 0
-14 -217 0
14 218 0
-14 -218 0
15 17 0
-15 -17 0
15 42 0
-15 -42 0
15 47 0
-15 -47 0
15 104 0
-15 -104 0
15 106 0
-15 -106 0
15 169 0
-15 -169 0
15 194 0
-15 -194 0
16 20 0
-16 -20 0
16 29 0
-16 -29 0
16 41 0
-16 -41 0
16 47 0
-16 -47 0
16 64 0
-16 -64 0
16 67 0
-16 -67 0
16 72 0
-16 -72 0
16 80 0
-16 -80 0
16 103 0
-16 -103 0
16 107 0
-16 -107 0
16 112 0
-16 -112 0
16 125 0
-16 -125 0
16 139 0
-16 -139 0
16 168 0
-16 -168 0
16 188 0
-16 -188 0
17 19 0
-17 -19 0
17 64 0
-17 -64 0
17 109 0
-17 -109 0
17 181 0
-17 -181 0
17 185 0
-17 -185 0
17 196 0
-17 -196 0
17 203 0
-17 -203 0
18 57 0
-18 -57 0
18 67 0
-18 -67 0
18 96 0
-18 -96 0
18 167 0
-18 -167 0
19 23 0
-19 -23 0
19 38 0
-19 -38 0
19 77 0
-19 -77 0
19 128 0
-19 -128 0
19 134 0
-19 -134 0
19 141 0
-19 -141 0
19 146 0
-19 -146 0
20 73 0
-20 -73 0
20 75 0
-20 -75 0
20 86 0
-20 -86 0
20 117 0
-20 -117 0
20 131 0
-20 -131 0
20 163 0
-20 -163 0
20 171 0
-20 -171 0
20 174 0
-20 -174 0
20 206 0
-20 -206 0
21 41 0
-21 -41 0
21 45 0
-21 -45 0
21 117 0
-21 -117 0
21 123 0
-21 -123 0
21 126 0
-21 -126 0
21 163 0
-21 -163 0
21 176 0
-21 -176 0
21 181 0
-21 -181 0
21 190 0
-21 -190 0
21 202 0
-21 -202 0
21 205 0
-21 -205 0
22 35 0
-22 -35 0
22 69 0
-22 -69 0
22 79 0
-22 -79 0
22 87 0
-22 -87 0
22 143 0
-22 -143 0
22 163 0
-22 -163 0
22 168 0
-22 -168 0
22 200 0
-22 -200 0
22 209 0
-22 -209 0
23 66 0
-23 -66 0
23 69 0
-23 -69 0
23 71 0
-23 -71 0
23 73 0
-23 -73 0
23 113 0
-23 -113 0
23 116 0
-23 -116 0
23 121 0
-23 -121 0
23 136 0
-23 -136 0
23 140 0
-23 -140 0
23 156 0
-23 -156 0
23 163 0
-23 -163 0
23 199 0
-23 -199 0
24 106 0
-24 -106 0
24 124 0
-24 -124 0
24 187 0
-24 -187 0
24 189 0
-24 -189 0
25 71 0
-25 -71 0
25 106 0
-25 -106 0
25 121 0
-25 -121 0
25 172 0
-25 -172 0
25 183 0
-25 -183 0
25 194 0
-25 -194 0
25 211 0
-25 -211 0
26 36 0
-26 -36 0
26 42 0
-26 -42 0
26 66 0
-26 -66 0
26 112 0
-26 -112 0
26 136 0
-26 -136 0
26 139 0
-26 -139 0
26 160 0
-26 -160 0
27 35 0
-27 -35 0
27 43 0
-27 -43 0
27 44 0
-27 -44 0
27 100 0
-27 -100 0
27 115 0
-27 -115 0
27 129 0
-27 -129 0
28 36 0
-28 -36 0
28 71 0
-28 -71 0
28 73 0
-28 -73 0
28 83 0
-28 -83 0
28 87 0
-28 -87 0
28 101 0
-28 -101 0
28 104 0
-28 -104 0
28 117 0
-28 -117 0
28 124 0
-28 -124 0
28 126 0
-28 -126 0
28 131 0
-28 -131 0
28 133 0
-28 -133 0
28 135 0
-28 -135 0
28 159 0
-28 -159 0
28 173 0
-28 -173 0
28 179 0
-28 -179 0
28 181 0
-28 -181 0
29 52 0
-29 -52 0
29 65 0
-29 -65 0
29 75 0
-29 -75 0
29 85 0
-29 -85 0
29 137 0
-29 -137 0
29 143 0
-29 -143 0
29 162 0
-29 -162 0
29 176 0
-29 -176 0
29 189 0
-29 -189 0
29 200 0
-29 -200 0
29 212 0
-29 -212 0
30 33 0
-30 -33 0
30 35 0
-30 -35 0
30 53 0
-30 -53 0
30 73 0
-30 -73 0
30 81 0
-30 -81 0
30 86 0
-30 -86 0
30 179 0
-30 -179 0
30 190 0
-30 -190 0
30 211 0
-30 -211 0
31 37 0
-31 -37 0
31 38 0
-31 -38 0
31 49 0
-31 -49 0
31 61 0
-31 -61 0
31 83 0
-31 -83 0
31 85 0
-31 -85 0
31 126 0
-31 -126 0
31 182 0
-31 -182 0
31 183 0
-31 -183 0
31 187 0
-31 -187 0
31 199 0
-31 -199 0
31 200 0
-31 -200 0
31 215 0
-31 -215 0
32 33 0
-32 -33 0
32 51 0
-32 -51 0
32 73 0
-32 -73 0
32 90 0
-32 -90 0
32 107 0
-32 -107 0
32 169 0
-32 -169 0
32 174 0
-32 -174 0
33 35 0
-33 -35 0
33 99 0
-33 -99 0
33 116 0
-33 -116 0
33 125 0
-33 -125 0
33 164 0
-33 -164 0
33 201 0
-33 -201 0
34 44 0
-34 -44 0
34 180 0
-34 -180 0
34 182 0
-34 -182 0
34 211 0
-34 -211 0
35 41 0
-35 -41 0
35 48 0
-35 -48 0
35 49 0
-35 -49 0
35 114 0
-35 -114 0
35 125 0
-35 -125 0
35 131 0
-35 -131 0
35 143 0
-35 -143 0
35 148 0
-35 -148 0
35 166 0
-35 -166 0
35 201 0
-35 -201 0
35 214 0
-35 -214 0
36 39 0
-36 -39 0
36 43 0
-36 -43 0
36 44 0
-36 -44 0
36 63 0
-36 -63 0
36 64 0
-36 -64 0
36 83 0
-36 -83 0
36 119 0
-36 -119 0
36 127 0
-36 -127 0
36 136 0
-36 -136 0
36 171 0
-36 -171 0
36 179 0
-36 -179 0
36 189 0
-36 -189 0
36 198 0
-36 -198 0
37 46 0
-37 -46 0
37 48 0
-37 -48 0
37 49 0
-37 -49 0
37 50 0
-37 -50 0
37 53 0
-37 -53 0
37 99 0
-37 -99 0
37 133 0
-37 -133 0
37 161 0
-37 -161 0
37 190 0
-37 -190 0
37 196 0
-37 -196 0
37 202 0
-37 -202 0
37 206 0
-37 -206 0
37 207 0
-37 -207 0
38 43 0
-38 -43 0
38 55 0
-38 -55 0
38 56 0
-38 -56 0
38 70 0
-38 -70 0
38 83 0
-38 -83 0
38 114 0
-38 -114 0
38 151 0
-38 -151 0
38 161 0
-38 -161 0
38 204 0
-38 -204 0
38 216 0
-38 -216 0
39 44 0
-39 -44 0
39 62 0
-39 -62 0
39 79 0
-39 -79 0
39 122 0
-39 -122 0
39 127 0
-39 -127 0
39 175 0
-39 -175 0
39 190 0
-39 -190 0
40 43 0
-40 -43 0
40 63 0
-40 -63 0
40 180 0
-40 -180 0
40 182 0
-40 -182 0
40 192 0
-40 -192 0
41 122 0
-41 -122 0
41 138 0
-41 -138 0
41 147 0
-41 -147 0
41 149 0
-41 -149 0
41 172 0
-41 -172 0
41 187 0
-41 -187 0
41 196 0
-41 -196 0
41 198 0
-41 -198 0
41 206 0
-41 -206 0
41 210 0
-41 -210 0
42 60 0
-42 -60 0
42 64 0
-42 -64 0
42 68 0
-42 -68 0
42 127 0
-42 -127 0
42 187 0
-42 -187 0
42 197 0
-42 -197 0
42 208 0
-42 -208 0
42 217 0
-42 -217 0
43 71 0
-43 -71 0
43 94 0
-43 -94 0
43 118 0
-43 -118 0
43 153 0
-43 -153 0
43 187 0
-43 -187 0
43 200 0
-43 -200 0
44 90 0
-44 -90 0
44 105 0
-44 -105 0
44 154 0
-44 -154 0
44 165 0
-44 -165 0
44 174 0
-44 -174 0
44 218 0
-44 -218 0
45 46 0
-45 -46 0
45 49 0
-45 -49 0
45 50 0
-45 -50 0
45 57 0
-45 -57 0
45 97 0
-45 -97 0
45 107 0
-45 -107 0
45 109 0
-45 -109 0
45 145 0
-45 -145 0
45 148 0
-45 -148 0
45 159 0
-45 -159 0
45 178 0
-45 -178 0
46 83 0
-46 -83 0
46 96 0
-46 -96 0
46 136 0
-46 -136 0
46 153 0
-46 -153 0
46 168 0
-46 -168 0
46 170 0
-46 -170 0
46 178 0
-46 -178 0
46 188 0
-46 -188 0
46 190 0
-46 -190 0
47 59 0
-47 -59 0
47 68 0
-47 -68 0
47 83 0
-47 -83 0
47 95 0
-47 -95 0
47 110 0
-47 -110 0
47 134 0
-47 -134 0
47 141 0
-47 -141 0
47 200 0
-47 -200 0
47 209 0
-47 -209 0
47 214 0
-47 -214 0
48 49 0
-48 -49 0
48 50 0
-48 -50 0
48 161 0
-48 -161 0
48 162 0
-48 -162 0
48 172 0
-48 -172 0
48 180 0
-48 -180 0
48 216 0
-48 -216 0
49 58 0
-49 -58 0
49 79 0
-49 -79 0
49 82 0
-49 -82 0
49 87 0
-49 -87 0
49 116 0
-49 -116 0
49 189 0
-49 -189 0
49 190 0
-49 -190 0
49 204 0
-49 -204 0
49 207 0
-49 -207 0
49 217 0
-49 -217 0
50 74 0
-50 -74 0
50 158 0
-50 -158 0
50 161 0
-50 -161 0
50 162 0
-50 -162 0
51 53 0
-51 -53 0
51 98 0
-51 -98 0
51 108 0
-51 -108 0
51 121 0
-51 -121 0
51 132 0
-51 -132 0
51 190 0
-51 -190 0
51 205 0
-51 -205 0
51 212 0
-51 -212 0
52 79 0
-52 -79 0
52 92 0
-52 -92 0
52 108 0
-52 -108 0
52 109 0
-52 -109 0
52 173 0
-52 -173 0
52 188 0
-52 -188 0
53 65 0
-53 -65 0
53 88 0
-53 -88 0
53 100 0
-53 -100 0
53 115 0
-53 -115 0
53 118 0
-53 -118 0
53 142 0
-53 -142 0
53 144 0
-53 -144 0
53 169 0
-53 -169 0
53 203 0
-53 -203 0
54 58 0
-54 -58 0
54 60 0
-54 -60 0
54 166 0
-54 -166 0
54 179 0
-54 -179 0
54 216 0
-54 -216 0
55 71 0
-55 -71 0
55 75 0
-55 -75 0
55 86 0
-55 -86 0
55 136 0
-55 -136 0
55 165 0
-55 -165 0
56 78 0
-56 -78 0
56 88 0
-56 -88 0
56 124 0
-56 -124 0
56 132 0
-56 -132 0
56 153 0
-56 -153 0
56 161 0
-56 -161 0
56 212 0
-56 -212 0
57 68 0
-57 -68 0
57 71 0
-57 -71 0
57 100 0
-57 -100 0
57 110 0
-57 -110 0
57 112 0
-57 -112 0
57 123 0
-57 -123 0
57 187 0
-57 -187 0
57 212 0
-57 -212 0
58 67 0
-58 -67 0
58 71 0
-58 -71 0
58 76 0
-58 -76 0
58 77 0
-58 -77 0
58 108 0
-58 -108 0
58 110 0
-58 -110 0
58 115 0
-58 -115 0
58 130 0
-58 -130 0
58 158 0
-58 -158 0
59 76 0
-59 -76 0
59 102 0
-59 -102 0
59 174 0
-59 -174 0
59 186 0
-59 -186 0
59 206 0
-59 -206 0
59 211 0
-59 -211 0
60 65 0
-60 -65 0
60 80 0
-60 -80 0
60 93 0
-60 -93 0
60 122 0
-60 -122 0
60 133 0
-60 -133 0
60 186 0
-60 -186 0
61 62 0
-61 -62 0
61 76 0
-61 -76 0
61 78 0
-61 -78 0
61 101 0
-61 -101 0
61 102 0
-61 -102 0
61 111 0
-61 -111 0
61 115 0
-61 -115 0
61 184 0
-61 -184 0
61 187 0
-61 -187 0
61 211 0
-61 -211 0
61 219 0
-61 -219 0
62 92 0
-62 -92 0
62 112 0
-62 -112 0
62 138 0
-62 -138 0
62 194 0
-62 -194 0
62 215 0
-62 -215 0
63 67 0
-63 -67 0
63 76 0
-63 -76 0
63 91 0
-63 -91 0
63 94 0
-63 -94 0
63 104 0
-63 -104 0
63 116 0
-63 -116 0
63 122 0
-63 -122 0
63 133 0
-63 -133 0
63 156 0
-63 -156 0
63 159 0
-63 -159 0
63 181 0
-63 -181 0
63 198 0
-63 -198 0
64 71 0
-64 -71 0
64 73 0
-64 -73 0
64 100 0
-64 -100 0
64 135 0
-64 -135 0
64 140 0
-64 -140 0
64 145 0
-64 -145 0
64 186 0
-64 -186 0
64 199 0
-64 -199 0
65 82 0
-65 -82 0
65 89 0
-65 -89 0
65 101 0
-65 -101 0
65 103 0
-65 -103 0
65 143 0
-65 -143 0
65 145 0
-65 -145 0
65 194 0
-65 -194 0
65 199 0
-65 -199 0
66 70 0
-66 -70 0
66 85 0
-66 -85 0
66 105 0
-66 -105 0
66 110 0
-66 -110 0
66 135 0
-66 -135 0
66 146 0
-66 -146 0
66 147 0
-66 -147 0
66 159 0
-66 -159 0
67 97 0
-67 -97 0
67 152 0
-67 -152 0
67 162 0
-67 -162 0
68 71 0
-68 -71 0
68 84 0
-68 -84 0
68 91 0
-68 -91 0
68 103 0
-68 -103 0
68 115 0
-68 -115 0
68 120 0
-68 -120 0
68 155 0
-68 -155 0
68 171 0
-68 -171 0
68 188 0
-68 -188 0
68 215 0
-68 -215 0
68 216 0
-68 -216 0
69 120 0
-69 -120 0
69 132 0
-69 -132 0
69 149 0
-69 -149 0
69 153 0
-69 -153 0
69 154 0
-69 -154 0
69 180 0
-69 -180 0
69 210 0
-69 -210 0
70 81 0
-70 -81 0
70 84 0
-70 -84 0
70 88 0
-70 -88 0
70 139 0
-70 -139 0
70 161 0
-70 -161 0
70 177 0
-70 -177 0
70 185 0
-70 -185 0
70 210 0
-70 -210 0
71 91 0
-71 -91 0
71 108 0
-71 -108 0
71 126 0
-71 -126 0
71 157 0
-71 -157 0
71 182 0
-71 -182 0
71 191 0
-71 -191 0
71 196 0
-71 -196 0
71 197 0
-71 -197 0
72 106 0
-72 -106 0
72 139 0
-72 -139 0
72 142 0
-72 -142 0
72 149 0
-72 -149 0
72 154 0
-72 -154 0
72 209 0
-72 -209 0
72 213 0
-72 -213 0
73 99 0
-73 -99 0
73 108 0
-73 -108 0
73 113 0
-73 -113 0
73 120 0
-73 -120 0
73 123 0
-73 -123 0
73 134 0
-73 -134 0
73 140 0
-73 -140 0
73 161 0
-73 -161 0
73 168 0
-73 -168 0
73 173 0
-73 -173 0
73 177 0
-73 -177 0
73 190 0
-73 -190 0
73 212 0
-73 -212 0
74 169 0
-74 -169 0
74 173 0
-74 -173 0
74 214 0
-74 -214 0
74 220 0
-74 -220 0
75 82 0
-75 -82 0
75 107 0
-75 -107 0
75 125 0
-75 -125 0
75 128 0
-75 -128 0
75 140 0
-75 -140 0
75 159 0
-75 -159 0
75 160 0
-75 -160 0
75 177 0
-75 -177 0
75 179 0
-75 -179 0
76 135 0
-76 -135 0
76 168 0
-76 -168 0
76 178 0
-76 -178 0
76 205 0
-76 -205 0
77 94 0
-77 -94 0
78 82 0
-78 -82 0
78 89 0
-78 -89 0
78 102 0
-78 -102 0
78 126 0
-78 -126 0
78 165 0
-78 -165 0
78 200 0
-78 -200 0
79 119 0
-79 -119 0
79 122 0
-79 -122 0
79 179 0
-79 -179 0
79 185 0
-79 -185 0
79 187 0
-79 -187 0
79 205 0
-79 -205 0
80 91 0
-80 -91 0
80 101 0
-80 -101 0
80 104 0
-80 -104 0
80 153 0
-80 -153 0
80 164 0
-80 -164 0
80 189 0
-80 -189 0
81 160 0
-81 -160 0
81 220 0
-81 -220 0
82 104 0
-82 -104 0
82 106 0
-82 -106 0
82 157 0
-82 -157 0
82 191 0
-82 -191 0
82 212 0
-82 -212 0
83 184 0
-83 -184 0
83 187 0
-83 -187 0
83 191 0
-83 -191 0
83 214 0
-83 -214 0
84 89 0
-84 -89 0
84 114 0
-84 -114 0
84 136 0
-84 -136 0
84 144 0
-84 -144 0
84 153 0
-84 -153 0
84 191 0
-84 -191 0
84 192 0
-84 -192 0
84 198 0
-84 -198 0
84 203 0
-84 -203 0
85 91 0
-85 -91 0
85 97 0
-85 -97 0
85 105 0
-85 -105 0
85 107 0
-85 -107 0
85 118 0
-85 -118 0
85 125 0
-85 -125 0
85 148 0
-85 -148 0
85 155 0
-85 -155 0
85 156 0
-85 -156 0
86 96 0
-86 -96 0
86 118 0
-86 -118 0
86 123 0
-86 -123 0
86 128 0
-86 -128 0
86 160 0
-86 -160 0
86 163 0
-86 -163 0
86 189 0
-86 -189 0
86 193 0
-86 -193 0
86 201 0
-86 -201 0
86 218 0
-86 -218 0
87 95 0
-87 -95 0
87 141 0
-87 -141 0
87 178 0
-87 -178 0
87 192 0
-87 -192 0
87 198 0
-87 -198 0
87 200 0
-87 -200 0
87 206 0
-87 -206 0
88 115 0
-88 -115 0
88 117 0
-88 -117 0
88 121 0
-88 -121 0
88 123 0
-88 -123 0
88 158 0
-88 -158 0
88 172 0
-88 -172 0
88 179 0
-88 -179 0
88 220 0
-88 -220 0
89 105 0
-89 -105 0
89 145 0
-89 -145 0
89 185 0
-89 -185 0
89 186 0
-89 -186 0
89 211 0
-89 -211 0
90 160 0
-90 -160 0
90 194 0
-90 -194 0
90 201 0
-90 -201 0
91 115 0
-91 -115 0
91 165 0
-91 -165 0
91 167 0
-91 -167 0
91 180 0
-91 -180 0
91 210 0
-91 -210 0
92 131 0
-92 -131 0
92 133 0
-92 -133 0
92 148 0
-92 -148 0
92 156 0
-92 -156 0
92 168 0
-92 -168 0
92 199 0
-92 -199 0
92 201 0
-92 -201 0
92 207 0
-92 -207 0
92 208 0
-92 -208 0
93 114 0
-93 -114 0
93 121 0
-93 -121 0
93 156 0
-93 -156 0
93 160 0
-93 -160 0
93 163 0
-93 -163 0
93 178 0
-93 -178 0
93 186 0
-93 -186 0
93 201 0
-93 -201 0
94 105 0
-94 -105 0
94 151 0
-94 -151 0
94 172 0
-94 -172 0
94 183 0
-94 -183 0
94 203 0
-94 -203 0
95 132 0
-95 -132 0
95 138 0
-95 -138 0
95 146 0
-95 -146 0
95 168 0
-95 -168 0
95 171 0
-95 -171 0
96 106 0
-96 -106 0
96 174 0
-96 -174 0
97 141 0
-97 -141 0
97 142 0
-97 -142 0
97 187 0
-97 -187 0
97 190 0
-97 -190 0
97 220 0
-97 -220 0
98 121 0
-98 -121 0
98 126 0
-98 -126 0
98 146 0
-98 -146 0
98 151 0
-98 -151 0
98 204 0
-98 -204 0
99 114 0
-99 -114 0
99 164 0
-99 -164 0
99 183 0
-99 -183 0
99 185 0
-99 -185 0
99 187 0
-99 -187 0
99 192 0
-99 -192 0
100 106 0
-100 -106 0
100 108 0
-100 -108 0
100 116 0
-100 -116 0
100 121 0
-100 -121 0
100 158 0
-100 -158 0
100 165 0
-100 -165 0
100 171 0
-100 -171 0
100 174 0
-100 -174 0
100 198 0
-100 -198 0
100 199 0
-100 -199 0
100 211 0
-100 -211 0
101 102 0
-101 -102 0
101 168 0
-101 -168 0
101 187 0
-101 -187 0
101 201 0
-101 -201 0
101 218 0
-101 -218 0
102 125 0
-102 -125 0
102 126 0
-102 -126 0
102 132 0
-102 -132 0
102 172 0
-102 -172 0
102 190 0
-102 -190 0
102 196 0
-102 -196 0
102 200 0
-102 -200 0
103 112 0
-103 -112 0
103 123 0
-103 -123 0
103 176 0
-103 -176 0
103 181 0
-103 -181 0
103 188 0
-103 -188 0
103 201 0
-103 -201 0
104 136 0
-104 -136 0
104 192 0
-104 -192 0
104 196 0
-104 -196 0
105 125 0
-105 -125 0
105 126 0
-105 -126 0
105 156 0
-105 -156 0
105 172 0
-105 -172 0
105 174 0
-105 -174 0
105 178 0
-105 -178 0
105 181 0
-105 -181 0
105 184 0
-105 -184 0
105 200 0
-105 -200 0
105 207 0
-105 -207 0
106 129 0
-106 -129 0
106 166 0
-106 -166 0
106 177 0
-106 -177 0
106 198 0
-106 -198 0
107 141 0
-107 -141 0
107 142 0
-107 -142 0
107 174 0
-107 -174 0
107 196 0
-107 -196 0
107 215 0
-107 -215 0
108 119 0
-108 -119 0
108 135 0
-108 -135 0
108 137 0
-108 -137 0
108 142 0
-108 -142 0
108 151 0
-108 -151 0
108 157 0
-108 -157 0
108 179 0
-108 -179 0
108 216 0
-108 -216 0
109 126 0
-109 -126 0
109 127 0
-109 -127 0
109 143 0
-109 -143 0
109 164 0
-109 -164 0
109 182 0
-109 -182 0
109 185 0
-109 -185 0
110 128 0
-110 -128 0
110 141 0
-110 -141 0
110 153 0
-110 -153 0
110 163 0
-110 -163 0
110 219 0
-110 -219 0
111 120 0
-111 -120 0
111 148 0
-111 -148 0
111 154 0
-111 -154 0
111 177 0
-111 -177 0
112 130 0
-112 -130 0
112 133 0
-112 -133 0
112 164 0
-112 -164 0
112 184 0
-112 -184 0
113 115 0
-113 -115 0
113 120 0
-113 -120 0
113 138 0
-113 -138 0
113 161 0
-113 -161 0
113 173 0
-113 -173 0
113 177 0
-113 -177 0
113 207 0
-113 -207 0
114 115 0
-114 -115 0
114 142 0
-114 -142 0
114 197 0
-114 -197 0
114 209 0
-114 -209 0
114 210 0
-114 -210 0
115 143 0
-115 -143 0
115 148 0
-115 -148 0
115 199 0
-115 -199 0
115 208 0
-115 -208 0
115 215 0
-115 -215 0
116 196 0
-116 -196 0
116 197 0
-116 -197 0
116 205 0
-116 -205 0
116 206 0
-116 -206 0
117 139 0
-117 -139 0
117 168 0
-117 -168 0
117 171 0
-117 -171 0
118 170 0
-118 -170 0
118 171 0
-118 -171 0
120 142 0
-120 -142 0
120 158 0
-120 -158 0
120 184 0
-120 -184 0
120 187 0
-120 -187 0
120 202 0
-120 -202 0
120 205 0
-120 -205 0
121 152 0
-121 -152 0
121 169 0
-121 -169 0
121 183 0
-121 -183 0
121 211 0
-121 -211 0
122 133 0
-122 -133 0
122 139 0
-122 -139 0
122 172 0
-122 -172 0
122 197 0
-122 -197 0
122 200 0
-122 -200 0
123 133 0
-123 -133 0
123 180 0
-123 -180 0
123 205 0
-123 -205 0
124 131 0
-124 -131 0
124 137 0
-124 -137 0
124 143 0
-124 -143 0
124 146 0
-124 -146 0
124 175 0
-124 -175 0
124 187 0
-124 -187 0
124 197 0
-124 -197 0
124 215 0
-124 -215 0
125 165 0
-125 -165 0
125 178 0
-125 -178 0
125 193 0
-125 -193 0
125 204 0
-125 -204 0
125 213 0
-125 -213 0
126 206 0
-126 -206 0
126 208 0
-126 -208 0
127 132 0
-127 -132 0
127 143 0
-127 -143 0
127 158 0
-127 -158 0
127 211 0
-127 -211 0
127 217 0
-127 -217 0
128 157 0
-128 -157 0
128 164 0
-128 -164 0
128 192 0
-128 -192 0
128 201 0
-128 -201 0
129 142 0
-129 -142 0
129 156 0
-129 -156 0
129 162 0
-129 -162 0
129 166 0
-129 -166 0
129 217 0
-129 -217 0
130 134 0
-130 -134 0
130 150 0
-130 -150 0
130 162 0
-130 -162 0
130 201 0
-130 -201 0
130 204 0
-130 -204 0
131 138 0
-131 -138 0
131 142 0
-131 -142 0
131 166 0
-131 -166 0
131 180 0
-131 -180 0
131 198 0
-131 -198 0
132 171 0
-132 -171 0
132 202 0
-132 -202 0
132 220 0
-132 -220 0
133 166 0
-133 -166 0
133 189 0
-133 -189 0
133 196 0
-133 -196 0
133 201 0
-133 -201 0
133 216 0
-133 -216 0
134 150 0
-134 -150 0
134 154 0
-134 -154 0
134 173 0
-134 -173 0
134 192 0
-134 -192 0
134 213 0
-134 -213 0
135 151 0
-135 -151 0
136 138 0
-136 -138 0
136 139 0
-136 -139 0
136 142 0
-136 -142 0
136 153 0
-136 -153 0
136 174 0
-136 -174 0
136 182 0
-136 -182 0
137 141 0
-137 -141 0
137 163 0
-137 -163 0
137 188 0
-137 -188 0
137 191 0
-137 -191 0
137 195 0
-137 -195 0
138 169 0
-138 -169 0
138 171 0
-138 -171 0
138 178 0
-138 -178 0
138 189 0
-138 -189 0
138 199 0
-138 -199 0
138 203 0
-138 -203 0
139 142 0
-139 -142 0
139 167 0
-139 -167 0
139 172 0
-139 -172 0
140 167 0
-140 -167 0
140 179 0
-140 -179 0
140 182 0
-140 -182 0
140 198 0
-140 -198 0
140 208 0
-140 -208 0
141 171 0
-141 -171 0
142 143 0
-142 -143 0
142 149 0
-142 -149 0
142 155 0
-142 -155 0
142 161 0
-142 -161 0
142 164 0
-142 -164 0
142 213 0
-142 -213 0
143 148 0
-143 -148 0
143 162 0
-143 -162 0
143 183 0
-143 -183 0
143 193 0
-143 -193 0
143 196 0
-143 -196 0
143 219 0
-143 -219 0
144 152 0
-144 -152 0
144 196 0
-144 -196 0
144 199 0
-144 -199 0
144 209 0
-144 -209 0
145 146 0
-145 -146 0
145 147 0
-145 -147 0
145 149 0
-145 -149 0
145 153 0
-145 -153 0
145 156 0
-145 -156 0
145 174 0
-145 -174 0
145 202 0
-145 -202 0
146 164 0
-146 -164 0
146 177 0
-146 -177 0
146 184 0
-146 -184 0
146 200 0
-146 -200 0
146 201 0
-146 -201 0
146 204 0
-146 -204 0
147 182 0
-147 -182 0
148 164 0
-148 -164 0
148 216 0
-148 -216 0
149 177 0
-149 -177 0
149 190 0
-149 -190 0
149 203 0
-149 -203 0
149 215 0
-149 -215 0
150 159 0
-150 -159 0
150 170 0
-150 -170 0
150 208 0
-150 -208 0
150 212 0
-150 -212 0
151 154 0
-151 -154 0
151 161 0
-151 -161 0
151 169 0
-151 -169 0
151 207 0
-151 -207 0
152 170 0
-152 -170 0
152 177 0
-152 -177 0
152 213 0
-152 -213 0
153 218 0
-153 -218 0
154 155 0
-154 -155 0
154 204 0
-154 -204 0
154 205 0
-154 -205 0
154 206 0
-154 -206 0
154 207 0
-154 -207 0
154 218 0
-154 -218 0
155 175 0
-155 -175 0
155 195 0
-155 -195 0
155 198 0
-155 -198 0
156 192 0
-156 -192 0
156 196 0
-156 -196 0
156 220 0
-156 -220 0
157 172 0
-157 -172 0
158 171 0
-158 -171 0
158 215 0
-158 -215 0
159 165 0
-159 -165 0
159 176 0
-159 -176 0
159 184 0
-159 -184 0
159 218 0
-159 -218 0
160 173 0
-160 -173 0
160 174 0
-160 -174 0
160 177 0
-160 -177 0
160 179 0
-160 -179 0
160 181 0
-160 -181 0
160 195 0
-160 -195 0
160 203 0
-160 -203 0
160 204 0
-160 -204 0
160 205 0
-160 -205 0
160 219 0
-160 -219 0
161 189 0
-161 -189 0
162 181 0
-162 -181 0
162 184 0
-162 -184 0
163 172 0
-163 -172 0
163 206 0
-163 -206 0
164 168 0
-164 -168 0
164 179 0
-164 -179 0
164 203 0
-164 -203 0
164 213 0
-164 -213 0
165 166 0
-165 -166 0
165 181 0
-165 -181 0
165 206 0
-165 -206 0
166 211 0
-166 -211 0
167 195 0
-167 -195 0
167 217 0
-167 -217 0
168 169 0
-168 -169 0
168 170 0
-168 -170 0
168 194 0
-168 -194 0
169 208 0
-169 -208 0
170 191 0
-170 -191 0
170 216 0
-170 -216 0
171 178 0
-171 -178 0
171 183 0
-171 -183 0
171 188 0
-171 -188 0
171 189 0
-171 -189 0
173 206 0
-173 -206 0
174 200 0
-174 -200 0
174 213 0
-174 -213 0
174 216 0
-174 -216 0
174 219 0
-174 -219 0
174 220 0
-174 -220 0
176 205 0
-176 -205 0
176 206 0
-176 -206 0
177 201 0
-177 -201 0
178 182 0
-178 -182 0
178 183 0
-178 -183 0
178 191 0
-178 -191 0
179 187 0
-179 -187 0
180 187 0
-180 -187 0
180 204 0
-180 -204 0
180 211 0
-180 -211 0
181 197 0
-181 -197 0
181 209 0
-181 -209 0
181 219 0
-181 -219 0
182 192 0
-182 -192 0
182 214 0
-182 -214 0
182 218 0
-182 -218 0
183 190 0
-183 -190 0
184 216 0
-184 -216 0
185 191 0
-185 -191 0
185 198 0
-185 -198 0
186 199 0
-186 -199 0
186 202 0
-186 -202 0
186 211 0
-186 -211 0
187 217 0
-187 -217 0
187 220 0
-187 -220 0
188 191 0
-188 -191 0
188 199 0
-188 -199 0
188 202 0
-188 -202 0
189 196 0
-189 -196 0
190 193 0
-190 -193 0
190 205 0
-190 -205 0
191 194 0
-191 -194 0
192 199 0
-192 -199 0
192 206 0
-192 -206 0
193 194 0
-193 -194 0
193 202 0
-193 -202 0
193 211 0
-193 -211 0
193 215 0
-193 -215 0
195 196 0
-195 -196 0
195 208 0
-195 -208 0
196 205 0
-196 -205 0
197 198 0
-197 -198 0
197 207 0
-197 -207 0
197 220 0
-197 -220 0
198 205 0
-198 -205 0
199 207 0
-199 -207 0
199 208 0
-199 -208 0
200 204 0
-200 -204 0
200 214 0
-200 -214 0
201 210 0
-201 -210 0
201 215 0
-201 -215 0
204 216 0
-204 -216 0
204 220 0
-204 -220 0
210 220 0
-210 -220 0
212 220 0
-212 -220 0
216 219 0
-216 -219 0
