FourierSAT_Github_AIJ/res/fs_1core/s2v220c2300-1.cnf.txt
o 368
o 359
o 358
